 100 

  32   5  17   7   8  28   9  34  16   6  45  39  13  13  50  49  26  39  30  36  33  42   6  28  29   4  16  39   1  22   8  45  34  37  34  19  14  29   2  40  16   5  35  31  22  16   1  29  37  42   6   3  22   4  13   3  14  31  27  17  17   5  29   7   8   5  32  22   5   3   1  24  48   6  12  26  15  43   5   9  42  39  44   2   3   8  12  21   3   3  34   6   8  27  39  10  28  27  27  41


 1040

   2   1  19  22   8   9  22  12   7  23  16  14   5   8   2   9   4  10  17  19   5  12   9  17  23  17  19  23   4  10   7  14   9  10   3  24   8  11   1   6   1  15  17  10  21  22  21  12  19  24   6  24  25  16  23  15  19  23  18  13  17  15  17   2  20   8   1  25   6   2   6   5  21  11  14  21   4  19   2  15   3   6  23  19   2   1  17  18  17  22  12  22  14  10  11  13   4   5   9  11

